
Log started (V11.0.0) Fri May 16 18:58:10 2008

Tried aggregator 1 time.
Reduced MIP has 240 rows, 8001 columns, and 16040 nonzeros.
Presolve time =    0.05 sec.
Clique table members: 200.
MIP emphasis: balance optimality and feasibility.
MIP search method: dynamic search.
Parallel mode: none, using 1 thread.
Root relaxation solution time =    0.47 sec.

        Nodes                                         Cuts/
   Node  Left     Objective  IInf  Best Integer     Best Node    ItCnt     Gap

*     0+    0                        21933.0000      500.7998      567   97.72%
*     0+    0                          503.0000      500.7998      567    0.44%
      0     0      501.0000    53      503.0000      Fract: 6      589    0.40%
      0     0      501.0000    55      503.0000     Covers: 1      618    0.40%
      0     0      501.0000    50      503.0000     Covers: 1      622    0.40%
      0     0      501.0000    48      503.0000     Covers: 1      623    0.40%
      0     2      501.0000    48      503.0000      501.0000      623    0.40%
*    20+   18                          502.0000      501.0000      958    0.20%
    100    68      501.0000    43      502.0000      501.0000     5528    0.20%
    200    94      501.0000    56      502.0000      501.0000    10059    0.20%
    300   137    infeasible            502.0000      501.0000    13266    0.20%
    400   183      501.0000    52      502.0000      501.0000    22090    0.20%

Cover cuts applied:  14
Gomory fractional cuts applied:  11

Solution pool: 3 solutions saved.

MIP - Integer optimal solution:  Objective = 5.0200000000e+002
Solution time =   13.55 sec.  Iterations = 27804  Nodes = 478 (226)


Incumbent solution
Variable Name           Solution Value
Cmax                        502.000000
X_1_20                        1.000000
X_2_1                         1.000000
X_3_11                        1.000000
X_4_31                        1.000000
X_5_20                        1.000000
X_6_31                        1.000000
X_7_38                        1.000000
X_8_37                        1.000000
X_9_7                         1.000000
X_10_9                        1.000000
X_11_26                       1.000000
X_12_38                       1.000000
X_13_6                        1.000000
X_14_19                       1.000000
X_15_13                       1.000000
X_16_13                       1.000000
X_17_5                        1.000000
X_18_12                       1.000000
X_19_35                       1.000000
X_20_34                       1.000000
X_21_10                       1.000000
X_22_35                       1.000000
X_23_14                       1.000000
X_24_28                       1.000000
X_25_17                       1.000000
X_26_19                       1.000000
X_27_39                       1.000000
X_28_2                        1.000000
X_29_10                       1.000000
X_30_6                        1.000000
X_31_21                       1.000000
X_32_22                       1.000000
X_33_13                       1.000000
X_34_2                        1.000000
X_35_37                       1.000000
X_36_29                       1.000000
X_37_26                       1.000000
X_38_25                       1.000000
X_39_24                       1.000000
X_40_36                       1.000000
X_41_21                       1.000000
X_42_3                        1.000000
X_43_29                       1.000000
X_44_18                       1.000000
X_45_26                       1.000000
X_46_12                       1.000000
X_47_6                        1.000000
X_48_3                        1.000000
X_49_25                       1.000000
X_50_16                       1.000000
X_51_40                       1.000000
X_52_35                       1.000000
X_53_21                       1.000000
X_54_25                       1.000000
X_55_13                       1.000000
X_56_18                       1.000000
X_57_34                       1.000000
X_58_22                       1.000000
X_59_3                        1.000000
X_60_6                        1.000000
X_61_9                        1.000000
X_62_23                       1.000000
X_63_39                       1.000000
X_64_27                       1.000000
X_65_15                       1.000000
X_66_10                       1.000000
X_67_4                        1.000000
X_68_4                        1.000000
X_69_11                       1.000000
X_70_29                       1.000000
X_71_39                       1.000000
X_72_7                        1.000000
X_73_40                       1.000000
X_74_20                       1.000000
X_75_21                       1.000000
X_76_15                       1.000000
X_77_38                       1.000000
X_78_25                       1.000000
X_79_33                       1.000000
X_80_13                       1.000000
X_81_8                        1.000000
X_82_38                       1.000000
X_83_32                       1.000000
X_84_32                       1.000000
X_85_37                       1.000000
X_86_4                        1.000000
X_87_5                        1.000000
X_88_30                       1.000000
X_89_37                       1.000000
X_90_20                       1.000000
X_91_26                       1.000000
X_92_11                       1.000000
X_93_15                       1.000000
X_94_11                       1.000000
X_95_34                       1.000000
X_96_27                       1.000000
X_97_19                       1.000000
X_98_23                       1.000000
X_99_8                        1.000000
X_100_30                      1.000000
X_101_28                      1.000000
X_102_33                      1.000000
X_103_17                      1.000000
X_104_16                      1.000000
X_105_4                       1.000000
X_106_12                      1.000000
X_107_24                      1.000000
X_108_14                      1.000000
X_109_8                       1.000000
X_110_20                      1.000000
X_111_36                      1.000000
X_112_9                       1.000000
X_113_32                      1.000000
X_114_14                      1.000000
X_115_36                      1.000000
X_116_31                      1.000000
X_117_8                       1.000000
X_118_7                       1.000000
X_119_22                      1.000000
X_120_40                      1.000000
X_121_8                       1.000000
X_122_27                      1.000000
X_123_24                      1.000000
X_124_34                      1.000000
X_125_28                      1.000000
X_126_21                      1.000000
X_127_34                      1.000000
X_128_39                      1.000000
X_129_36                      1.000000
X_130_16                      1.000000
X_131_18                      1.000000
X_132_15                      1.000000
X_133_28                      1.000000
X_134_28                      1.000000
X_135_11                      1.000000
X_136_32                      1.000000
X_137_5                       1.000000
X_138_1                       1.000000
X_139_31                      1.000000
X_140_26                      1.000000
X_141_30                      1.000000
X_142_18                      1.000000
X_143_2                       1.000000
X_144_5                       1.000000
X_145_6                       1.000000
X_146_40                      1.000000
X_147_1                       1.000000
X_148_22                      1.000000
X_149_24                      1.000000
X_150_36                      1.000000
X_151_33                      1.000000
X_152_33                      1.000000
X_153_19                      1.000000
X_154_1                       1.000000
X_155_39                      1.000000
X_156_23                      1.000000
X_157_27                      1.000000
X_158_35                      1.000000
X_159_29                      1.000000
X_160_17                      1.000000
X_161_3                       1.000000
X_162_9                       1.000000
X_163_27                      1.000000
X_164_7                       1.000000
X_165_30                      1.000000
X_166_37                      1.000000
X_167_14                      1.000000
X_168_2                       1.000000
X_169_25                      1.000000
X_170_31                      1.000000
X_171_40                      1.000000
X_172_12                      1.000000
X_173_22                      1.000000
X_174_29                      1.000000
X_175_17                      1.000000
X_176_14                      1.000000
X_177_10                      1.000000
X_178_18                      1.000000
X_179_33                      1.000000
X_180_16                      1.000000
X_181_32                      1.000000
X_182_4                       1.000000
X_183_3                       1.000000
X_184_5                       1.000000
X_185_10                      1.000000
X_186_19                      1.000000
X_187_17                      1.000000
X_188_24                      1.000000
X_189_9                       1.000000
X_190_35                      1.000000
X_191_23                      1.000000
X_192_38                      1.000000
X_193_1                       1.000000
X_194_30                      1.000000
X_195_12                      1.000000
X_196_2                       1.000000
X_197_15                      1.000000
X_198_23                      1.000000
X_199_7                       1.000000
X_200_16                      1.000000
All other variables in the range 1-8001 are 0.
